p edge 229 767
e 1 4
e 1 9
e 1 11
e 1 18
e 1 38
e 1 85
e 1 108
e 1 127
e 1 166
e 1 175
e 1 183
e 1 197
e 1 225
e 2 5
e 2 10
e 2 26
e 2 47
e 2 107
e 2 143
e 2 166
e 2 179
e 2 203
e 3 13
e 3 14
e 3 25
e 3 28
e 3 43
e 3 55
e 3 103
e 3 126
e 3 131
e 3 151
e 3 154
e 3 169
e 3 170
e 3 214
e 4 8
e 4 9
e 4 18
e 4 26
e 4 37
e 4 45
e 4 51
e 4 83
e 4 85
e 4 110
e 4 133
e 4 159
e 4 160
e 4 196
e 4 199
e 4 209
e 5 10
e 5 26
e 5 27
e 5 34
e 5 35
e 5 69
e 5 76
e 5 82
e 5 94
e 5 102
e 5 107
e 5 127
e 5 143
e 5 159
e 5 166
e 6 13
e 6 19
e 6 25
e 6 44
e 6 95
e 6 143
e 6 162
e 6 198
e 6 202
e 6 211
e 7 9
e 7 16
e 7 21
e 7 30
e 7 66
e 7 79
e 7 87
e 7 122
e 7 130
e 7 154
e 7 163
e 7 191
e 7 192
e 8 9
e 8 12
e 8 19
e 8 20
e 8 40
e 8 70
e 8 133
e 8 134
e 8 155
e 8 160
e 8 164
e 8 169
e 8 170
e 8 199
e 8 209
e 9 16
e 9 18
e 9 54
e 9 66
e 9 78
e 9 85
e 9 87
e 9 128
e 10 13
e 10 40
e 10 69
e 10 76
e 10 127
e 10 143
e 10 159
e 10 197
e 11 52
e 11 77
e 11 84
e 11 105
e 11 135
e 11 150
e 11 165
e 11 175
e 11 197
e 11 229
e 12 17
e 12 31
e 12 36
e 12 56
e 12 65
e 12 70
e 12 86
e 12 91
e 12 139
e 13 22
e 13 25
e 13 64
e 13 88
e 13 96
e 13 103
e 13 114
e 13 156
e 13 214
e 13 222
e 14 28
e 14 72
e 14 98
e 14 99
e 14 131
e 14 134
e 14 141
e 14 214
e 15 23
e 15 31
e 15 60
e 15 82
e 15 111
e 16 18
e 16 30
e 16 54
e 16 66
e 16 87
e 16 122
e 17 22
e 17 27
e 17 34
e 17 35
e 17 41
e 17 60
e 17 68
e 17 70
e 17 75
e 17 138
e 18 40
e 18 46
e 18 54
e 18 55
e 18 85
e 18 88
e 18 96
e 18 105
e 18 110
e 19 133
e 19 134
e 19 162
e 19 198
e 19 202
e 19 211
e 19 227
e 20 21
e 20 41
e 20 45
e 20 160
e 20 186
e 20 207
e 21 104
e 21 116
e 21 142
e 22 24
e 22 41
e 22 65
e 22 81
e 22 222
e 23 25
e 23 42
e 23 52
e 23 60
e 23 74
e 23 78
e 23 80
e 23 93
e 23 99
e 23 138
e 23 165
e 23 189
e 24 81
e 24 131
e 24 185
e 24 223
e 25 36
e 25 44
e 25 50
e 25 57
e 25 87
e 25 99
e 25 102
e 25 103
e 25 146
e 25 189
e 25 214
e 26 27
e 26 34
e 26 35
e 26 45
e 26 51
e 26 83
e 26 110
e 26 159
e 27 29
e 27 34
e 27 35
e 27 39
e 27 42
e 27 60
e 27 75
e 27 80
e 27 90
e 27 138
e 28 33
e 28 48
e 28 131
e 28 210
e 29 34
e 29 35
e 29 36
e 29 38
e 29 64
e 29 75
e 29 90
e 29 92
e 29 113
e 30 33
e 30 47
e 30 59
e 30 66
e 30 85
e 30 100
e 30 122
e 30 144
e 31 111
e 31 115
e 31 129
e 32 49
e 32 56
e 32 65
e 32 68
e 32 101
e 32 178
e 33 37
e 33 43
e 33 48
e 33 57
e 33 62
e 33 100
e 33 120
e 33 144
e 33 154
e 33 176
e 34 35
e 34 39
e 34 42
e 34 60
e 34 75
e 34 80
e 34 90
e 34 138
e 34 157
e 35 39
e 35 42
e 35 60
e 35 75
e 35 80
e 35 90
e 35 138
e 35 157
e 36 44
e 36 56
e 36 86
e 36 90
e 36 92
e 36 102
e 36 107
e 36 113
e 36 115
e 36 137
e 36 138
e 36 139
e 36 152
e 36 217
e 37 40
e 37 47
e 37 48
e 37 50
e 37 55
e 37 62
e 37 81
e 37 103
e 37 133
e 37 151
e 37 155
e 37 196
e 37 219
e 38 39
e 38 64
e 38 88
e 38 122
e 38 127
e 38 225
e 39 71
e 39 75
e 39 93
e 39 122
e 39 163
e 40 50
e 40 53
e 40 55
e 40 70
e 41 68
e 41 104
e 42 52
e 42 71
e 42 74
e 42 78
e 42 80
e 42 93
e 42 157
e 43 55
e 43 57
e 43 59
e 43 146
e 43 148
e 43 151
e 43 154
e 43 158
e 43 188
e 44 60
e 44 102
e 44 184
e 45 51
e 45 110
e 45 159
e 45 207
e 46 51
e 46 53
e 46 76
e 46 85
e 46 110
e 47 53
e 47 55
e 47 61
e 47 81
e 47 103
e 47 179
e 47 205
e 48 62
e 48 124
e 48 147
e 48 195
e 48 226
e 49 56
e 49 91
e 49 101
e 49 109
e 49 111
e 49 173
e 49 221
e 50 57
e 50 67
e 50 87
e 50 100
e 50 119
e 51 76
e 51 110
e 51 117
e 51 159
e 52 74
e 52 78
e 52 89
e 52 105
e 52 135
e 52 229
e 53 58
e 53 61
e 53 109
e 53 112
e 54 58
e 54 64
e 54 66
e 54 98
e 54 153
e 55 81
e 55 103
e 55 148
e 55 151
e 56 58
e 56 86
e 56 91
e 56 139
e 57 59
e 57 87
e 57 146
e 57 158
e 57 176
e 57 188
e 58 86
e 58 109
e 58 139
e 58 194
e 59 73
e 59 117
e 59 144
e 59 146
e 59 158
e 59 188
e 60 75
e 60 138
e 61 79
e 61 116
e 61 121
e 61 147
e 61 148
e 61 158
e 61 177
e 62 142
e 62 161
e 62 164
e 62 173
e 63 92
e 63 103
e 63 118
e 63 132
e 63 190
e 64 66
e 64 98
e 64 108
e 64 145
e 64 153
e 66 98
e 66 122
e 66 153
e 67 76
e 67 100
e 67 174
e 67 176
e 68 101
e 69 76
e 69 79
e 69 112
e 69 119
e 69 120
e 69 127
e 69 149
e 69 159
e 69 179
e 69 196
e 70 86
e 70 91
e 70 185
e 71 80
e 71 83
e 71 93
e 71 101
e 71 221
e 72 94
e 72 98
e 72 102
e 72 118
e 72 137
e 72 140
e 73 100
e 73 112
e 73 117
e 73 120
e 73 124
e 73 149
e 74 78
e 74 82
e 74 84
e 74 98
e 74 106
e 74 125
e 75 90
e 75 138
e 75 157
e 76 127
e 76 159
e 77 82
e 77 84
e 77 97
e 77 128
e 77 140
e 77 167
e 77 168
e 77 206
e 78 128
e 78 135
e 78 216
e 79 114
e 79 130
e 79 149
e 79 158
e 79 177
e 79 179
e 79 191
e 79 192
e 80 93
e 81 103
e 81 180
e 81 223
e 82 98
e 82 106
e 82 125
e 82 140
e 82 167
e 82 168
e 83 101
e 83 164
e 83 169
e 83 170
e 83 207
e 83 221
e 84 89
e 84 97
e 84 206
e 86 91
e 86 139
e 87 119
e 88 96
e 88 105
e 88 114
e 88 156
e 88 191
e 88 192
e 88 195
e 89 135
e 89 206
e 90 92
e 90 113
e 91 109
e 91 111
e 92 113
e 92 132
e 92 190
e 93 101
e 94 102
e 94 118
e 96 105
e 96 114
e 96 123
e 96 156
e 96 171
e 96 172
e 96 191
e 96 192
e 97 108
e 97 128
e 97 206
e 97 212
e 97 213
e 98 106
e 98 125
e 98 153
e 99 134
e 99 189
e 99 214
e 100 112
e 100 124
e 100 144
e 100 148
e 100 149
e 101 221
e 102 118
e 103 146
e 103 214
e 104 126
e 105 121
e 105 123
e 105 144
e 105 171
e 105 172
e 105 177
e 106 107
e 106 125
e 106 140
e 107 137
e 107 138
e 107 152
e 107 184
e 108 145
e 108 166
e 108 212
e 108 213
e 108 225
e 109 111
e 110 159
e 111 201
e 112 119
e 112 120
e 112 124
e 112 149
e 114 116
e 114 123
e 114 130
e 114 156
e 114 208
e 115 217
e 116 147
e 116 208
e 117 123
e 118 132
e 119 120
e 121 144
e 121 148
e 121 158
e 121 171
e 121 172
e 121 177
e 121 208
e 123 130
e 123 156
e 123 171
e 123 172
e 124 147
e 124 149
e 125 153
e 126 154
e 126 174
e 126 176
e 127 159
e 127 225
e 128 141
e 129 136
e 129 220
e 130 156
e 130 191
e 130 192
e 131 185
e 133 134
e 133 196
e 134 214
e 134 223
e 135 216
e 135 229
e 136 180
e 137 138
e 137 145
e 137 152
e 138 152
e 139 182
e 139 187
e 139 194
e 140 167
e 140 168
e 141 200
e 142 161
e 142 186
e 143 166
e 144 171
e 144 172
e 144 177
e 146 158
e 146 188
e 147 174
e 149 161
e 149 179
e 149 199
e 150 165
e 150 167
e 150 168
e 150 228
e 151 155
e 151 219
e 152 182
e 154 163
e 155 161
e 155 164
e 155 169
e 155 170
e 155 209
e 155 219
e 156 191
e 156 192
e 156 195
e 158 177
e 158 208
e 160 199
e 160 209
e 161 199
e 161 209
e 162 198
e 162 202
e 162 211
e 164 169
e 164 170
e 164 207
e 166 225
e 167 168
e 167 183
e 168 183
e 169 170
e 169 207
e 170 207
e 171 172
e 171 177
e 172 177
e 173 221
e 173 227
e 174 176
e 175 197
e 175 200
e 181 201
e 181 218
e 182 187
e 187 189
e 188 212
e 188 213
e 190 193
e 191 192
e 191 195
e 192 195
e 193 198
e 197 216
e 198 202
e 198 211
e 199 209
e 201 218
e 202 211
e 204 215
e 212 213
e 217 218
e 224 228
